c partition 1 of 2
p cnf 18 18
-5 -12 13 0
13 -8 3 0
-5 14 1 0
-18 -12 -2 0
12 -7 3 0
-16 9 -10 0
-8 -15 10 0
-3 18 -10 0
5 -1 17 0
2 6 12 0
-5 -2 6 0
-7 9 -6 0
11 -13 -10 0
8 5 18 0
10 15 -2 0
2 -15 -14 0
-2 5 15 0
6 4 -1 0
